(set-option :produce-models true); benchmark generated from python API
(set-info :status unknown)
(declare-fun l_0_0_5 () Real)
(declare-fun l_0_0_3 () Real)
(declare-fun l_0_0_4 () Real)
(declare-fun l_0_0_2 () Real)
(declare-fun l_0_0_9 () Real)
(declare-fun l_0_0_11 () Real)
(declare-fun l_0_0_8 () Real)
(declare-fun l_0_0_10 () Real)
(declare-fun _a_0_ () Real)
(declare-fun l_0_0_7 () Real)
(declare-fun l_0_0_1 () Real)
(declare-fun _a_1_ () Real)
(declare-fun _a_2_ () Real)
(declare-fun _a_3_ () Real)
(declare-fun _a_4_ () Real)
(declare-fun l_0_0_6 () Real)
(declare-fun l_0_0_12 () Real)
(declare-fun _a_5_ () Real)
(declare-fun l_0_1_7 () Real)
(declare-fun l_0_1_13 () Real)
(declare-fun l_0_1_1 () Real)
(declare-fun l_0_1_9 () Real)
(declare-fun l_0_1_8 () Real)
(declare-fun l_0_1_15 () Real)
(declare-fun l_0_1_14 () Real)
(declare-fun l_0_1_2 () Real)
(declare-fun l_0_1_3 () Real)
(declare-fun l_0_1_18 () Real)
(declare-fun l_0_1_17 () Real)
(declare-fun l_0_1_16 () Real)
(declare-fun l_0_1_12 () Real)
(declare-fun l_0_1_11 () Real)
(declare-fun l_0_1_10 () Real)
(declare-fun l_0_1_4 () Real)
(declare-fun l_0_1_6 () Real)
(declare-fun l_0_1_5 () Real)
(declare-fun l_0_2_17 () Real)
(declare-fun l_0_2_15 () Real)
(declare-fun l_0_2_16 () Real)
(declare-fun l_0_2_14 () Real)
(declare-fun l_0_2_9 () Real)
(declare-fun l_0_2_11 () Real)
(declare-fun l_0_2_8 () Real)
(declare-fun l_0_2_10 () Real)
(declare-fun l_0_2_2 () Real)
(declare-fun l_0_2_1 () Real)
(declare-fun l_0_2_4 () Real)
(declare-fun l_0_2_5 () Real)
(declare-fun l_0_2_3 () Real)
(declare-fun l_0_2_7 () Real)
(declare-fun l_0_2_18 () Real)
(declare-fun l_0_2_12 () Real)
(declare-fun l_0_2_6 () Real)
(declare-fun l_0_2_13 () Real)
(assert
 (let ((?x70 (* (* 2.0 l_0_0_3) l_0_0_5)))
 (let ((?x67 (* (* 2.0 l_0_0_2) l_0_0_4)))
 (let ((?x65 (- (- _a_0_ (* (* 2.0 l_0_0_10) l_0_0_8)) (* (* 2.0 l_0_0_11) l_0_0_9))))
 (= (- (- ?x65 ?x67) ?x70) 0.0)))))
(assert
 (let ((?x123 (* l_0_0_7 l_0_0_7)))
 (= (- (- _a_1_ (* (* 1.0 l_0_0_1) l_0_0_1)) ?x123) 0.0)))
(assert
 (let ((?x142 (* l_0_0_9 l_0_0_9)))
 (let ((?x140 (* l_0_0_8 l_0_0_8)))
 (let ((?x126 (* l_0_0_1 l_0_0_1)))
 (let ((?x133 (+ _a_2_ ?x126)))
 (let ((?x139 (- (- ?x133 (* (* 1.0 l_0_0_2) l_0_0_2)) (* (* 1.0 l_0_0_3) l_0_0_3))))
 (= (- (- ?x139 ?x140) ?x142) 0.0)))))))
(assert
 (let ((?x165 (- (- _a_3_ (* (* 2.0 l_0_0_1) l_0_0_2)) (* (* 2.0 l_0_0_7) l_0_0_8))))
 (= ?x165 0.0)))
(assert
 (let ((?x183 (- (- _a_4_ (* (* 2.0 l_0_0_1) l_0_0_4)) (* (* 2.0 l_0_0_10) l_0_0_7))))
 (= ?x183 0.0)))
(assert
 (let ((?x203 (* l_0_0_12 l_0_0_12)))
 (let ((?x201 (* l_0_0_11 l_0_0_11)))
 (let ((?x202 (- (- (- _a_5_ (* l_0_0_1 l_0_0_1)) (* l_0_0_10 l_0_0_10)) ?x201)))
 (let ((?x210 (- (- (- ?x202 ?x203) (* (* 1.0 l_0_0_4) l_0_0_4)) (* (* 1.0 l_0_0_5) l_0_0_5))))
 (= (- ?x210 (* (* 1.0 l_0_0_6) l_0_0_6)) 0.0))))))
(assert
 (let ((?x160 (* 2.0 l_0_0_1)))
 (let ((?x161 (* ?x160 l_0_0_2)))
 (= ?x161 0.0))))
(assert
 (let ((?x160 (* 2.0 l_0_0_1)))
 (let ((?x180 (* ?x160 l_0_0_4)))
 (= ?x180 0.0))))
(assert
 (= (+ (* l_0_0_2 l_0_0_2) (* l_0_0_3 l_0_0_3)) 0.0))
(assert
 (let ((?x70 (* (* 2.0 l_0_0_3) l_0_0_5)))
 (let ((?x67 (* (* 2.0 l_0_0_2) l_0_0_4)))
 (= (+ ?x67 ?x70) 0.0))))
(assert
 (let ((?x233 (* l_0_0_6 l_0_0_6)))
 (let ((?x229 (* l_0_0_5 l_0_0_5)))
 (let ((?x225 (* l_0_0_4 l_0_0_4)))
 (let ((?x252 (+ (+ (- (* (- l_0_0_2) l_0_0_2) (* l_0_0_3 l_0_0_3)) ?x225) ?x229)))
 (= (+ ?x252 ?x233) 0.0))))))
(assert
 (= (* (* (- 2.0) l_0_0_1) l_0_0_2) 0.0))
(assert
 (= (* (* (- 2.0) l_0_0_1) l_0_0_4) 0.0))
(assert
 (let ((?x70 (* (* 2.0 l_0_0_3) l_0_0_5)))
 (= (- (* (* (- 2.0) l_0_0_2) l_0_0_4) ?x70) 0.0)))
(assert
 (let ((?x233 (* l_0_0_6 l_0_0_6)))
 (= (- (- (* (- l_0_0_4) l_0_0_4) (* l_0_0_5 l_0_0_5)) ?x233) 0.0)))
(assert
 (>= l_0_0_1 0.0))
(assert
 (>= l_0_0_3 0.0))
(assert
 (>= l_0_0_6 0.0))
(assert
 (>= l_0_0_7 0.0))
(assert
 (>= l_0_0_9 0.0))
(assert
 (>= l_0_0_12 0.0))
(assert
 (let ((?x294 (+ (- (* (* (- _a_1_) l_0_1_1) l_0_1_1) (* l_0_1_13 l_0_1_13)) (* 1.0 (* l_0_1_7 l_0_1_7)))))
 (= (+ ?x294 (/ 15.0 4.0)) 0.0)))
(assert
 (let ((?x292 (* l_0_1_7 l_0_1_7)))
 (let ((?x320 (* l_0_1_15 l_0_1_15)))
 (let ((?x318 (* l_0_1_14 l_0_1_14)))
 (let ((?x313 (- (* (- _a_1_) (+ (* l_0_1_2 l_0_1_2) (* l_0_1_3 l_0_1_3))) (* (* _a_2_ l_0_1_1) l_0_1_1))))
 (let ((?x321 (- (- (- ?x313 (* (* (* 2.0 _a_3_) l_0_1_1) l_0_1_2)) ?x318) ?x320)))
 (let ((?x328 (+ (+ (- ?x321 ?x292) (* 1.0 (* l_0_1_8 l_0_1_8))) (* 1.0 (* l_0_1_9 l_0_1_9)))))
 (= (+ ?x328 1.0) 0.0))))))))
(assert
 (let ((?x292 (* l_0_1_7 l_0_1_7)))
 (let ((?x384 (* l_0_1_18 l_0_1_18)))
 (let ((?x382 (* l_0_1_17 l_0_1_17)))
 (let ((?x380 (* l_0_1_16 l_0_1_16)))
 (let ((?x361 (* l_0_1_6 l_0_1_6)))
 (let ((?x362 (+ (+ (* l_0_1_4 l_0_1_4) (* l_0_1_5 l_0_1_5)) ?x361)))
 (let ((?x287 (- _a_1_)))
 (let ((?x370 (- (- (* ?x287 ?x362) (* (* (* 2.0 _a_4_) l_0_1_1) l_0_1_4)) (* (* _a_5_ l_0_1_1) l_0_1_1))))
 (let ((?x376 (+ (+ ?x370 (* 1.0 (* l_0_1_10 l_0_1_10))) (* 1.0 (* l_0_1_11 l_0_1_11)))))
 (let ((?x385 (- (- (- (+ ?x376 (* 1.0 (* l_0_1_12 l_0_1_12))) ?x380) ?x382) ?x384)))
 (= (+ (- ?x385 ?x292) 1.0) 0.0))))))))))))
(assert
 (let ((?x429 (* 2.0 l_0_1_10)))
 (let ((?x430 (* ?x429 l_0_1_7)))
 (let ((?x428 (- (* (* (* (- 2.0) _a_1_) l_0_1_1) l_0_1_4) (* (* _a_4_ l_0_1_1) l_0_1_1))))
 (= (- (- (+ ?x428 ?x430) (* (* 2.0 l_0_1_13) l_0_1_16)) 4.0) 0.0)))))
(assert
 (let ((?x478 (* (* 2.0 l_0_1_11) l_0_1_9)))
 (let ((?x429 (* 2.0 l_0_1_10)))
 (let ((?x475 (* ?x429 l_0_1_8)))
 (let ((?x468 (+ (* (* 2.0 l_0_1_2) l_0_1_4) (* (* 2.0 l_0_1_3) l_0_1_5))))
 (let ((?x472 (- (- (* (* (- _a_0_) l_0_1_1) l_0_1_1) (* _a_1_ ?x468)) (* (* (* 2.0 _a_3_) l_0_1_1) l_0_1_4))))
 (let ((?x479 (+ (+ (- ?x472 (* (* (* 2.0 _a_4_) l_0_1_1) l_0_1_2)) ?x475) ?x478)))
 (let ((?x485 (- (- ?x479 (* (* 2.0 l_0_1_14) l_0_1_16)) (* (* 2.0 l_0_1_15) l_0_1_17))))
 (= ?x485 0.0)))))))))
(assert
 (let ((?x429 (* 2.0 l_0_1_10)))
 (let ((?x430 (* ?x429 l_0_1_7)))
 (let ((?x468 (+ (* (* 2.0 l_0_1_2) l_0_1_4) (* (* 2.0 l_0_1_3) l_0_1_5))))
 (let ((?x553 (- (* (* (* (- 2.0) _a_0_) l_0_1_1) l_0_1_2) (* (* (* 2.0 _a_2_) l_0_1_1) l_0_1_4))))
 (let ((?x557 (- (- ?x553 (* _a_3_ ?x468)) (* _a_4_ (+ (* l_0_1_2 l_0_1_2) (* l_0_1_3 l_0_1_3))))))
 (= (- ?x557 ?x430) 0.0)))))))
(assert
 (let ((?x614 (* (* 2.0 l_0_1_7) l_0_1_8)))
 (let ((?x468 (+ (* (* 2.0 l_0_1_2) l_0_1_4) (* (* 2.0 l_0_1_3) l_0_1_5))))
 (let ((?x361 (* l_0_1_6 l_0_1_6)))
 (let ((?x362 (+ (+ (* l_0_1_4 l_0_1_4) (* l_0_1_5 l_0_1_5)) ?x361)))
 (let ((?x608 (- (- (* (* (* (- 2.0) _a_0_) l_0_1_1) l_0_1_4) (* _a_3_ ?x362)) (* _a_4_ ?x468))))
 (= (- (- ?x608 (* (* (* 2.0 _a_5_) l_0_1_1) l_0_1_2)) ?x614) 0.0)))))))
(assert
 (let ((?x478 (* (* 2.0 l_0_1_11) l_0_1_9)))
 (let ((?x429 (* 2.0 l_0_1_10)))
 (let ((?x475 (* ?x429 l_0_1_8)))
 (let ((?x468 (+ (* (* 2.0 l_0_1_2) l_0_1_4) (* (* 2.0 l_0_1_3) l_0_1_5))))
 (let ((?x671 (- (* (- _a_0_) (+ (* l_0_1_2 l_0_1_2) (* l_0_1_3 l_0_1_3))) (* _a_2_ ?x468))))
 (= (- (- ?x671 ?x475) ?x478) 0.0)))))))
(assert
 (let ((?x326 (* l_0_1_9 l_0_1_9)))
 (let ((?x323 (* l_0_1_8 l_0_1_8)))
 (let ((?x377 (* l_0_1_12 l_0_1_12)))
 (let ((?x374 (* l_0_1_11 l_0_1_11)))
 (let ((?x371 (* l_0_1_10 l_0_1_10)))
 (let ((?x361 (* l_0_1_6 l_0_1_6)))
 (let ((?x362 (+ (+ (* l_0_1_4 l_0_1_4) (* l_0_1_5 l_0_1_5)) ?x361)))
 (let ((?x468 (+ (* (* 2.0 l_0_1_2) l_0_1_4) (* (* 2.0 l_0_1_3) l_0_1_5))))
 (let ((?x461 (- _a_0_)))
 (let ((?x709 (- (- (* ?x461 ?x468) (* _a_2_ ?x362)) (* _a_5_ (+ (* l_0_1_2 l_0_1_2) (* l_0_1_3 l_0_1_3))))))
 (= (- (- (- (- (- ?x709 ?x371) ?x374) ?x377) ?x323) ?x326) 0.0))))))))))))
(assert
 (let ((?x478 (* (* 2.0 l_0_1_11) l_0_1_9)))
 (let ((?x429 (* 2.0 l_0_1_10)))
 (let ((?x475 (* ?x429 l_0_1_8)))
 (let ((?x468 (+ (* (* 2.0 l_0_1_2) l_0_1_4) (* (* 2.0 l_0_1_3) l_0_1_5))))
 (let ((?x361 (* l_0_1_6 l_0_1_6)))
 (let ((?x362 (+ (+ (* l_0_1_4 l_0_1_4) (* l_0_1_5 l_0_1_5)) ?x361)))
 (let ((?x461 (- _a_0_)))
 (= (- (- (- (* ?x461 ?x362) (* _a_5_ ?x468)) ?x475) ?x478) 0.0)))))))))
(assert
 (let ((?x614 (* (* 2.0 l_0_1_7) l_0_1_8)))
 (let ((?x798 (- (* (* (* (- 2.0) _a_1_) l_0_1_1) l_0_1_2) (* (* _a_3_ l_0_1_1) l_0_1_1))))
 (= (+ (- ?x798 (* (* 2.0 l_0_1_13) l_0_1_14)) ?x614) 0.0))))
(assert
 (let ((?x614 (* (* 2.0 l_0_1_7) l_0_1_8)))
 (let ((?x822 (- (* (* (* (- 2.0) _a_2_) l_0_1_1) l_0_1_2) (* _a_3_ (+ (* l_0_1_2 l_0_1_2) (* l_0_1_3 l_0_1_3))))))
 (= (- ?x822 ?x614) 0.0))))
(assert
 (let ((?x326 (* l_0_1_9 l_0_1_9)))
 (let ((?x323 (* l_0_1_8 l_0_1_8)))
 (let ((?x846 (- (* (- _a_2_) (+ (* l_0_1_2 l_0_1_2) (* l_0_1_3 l_0_1_3))) ?x323)))
 (= (- ?x846 ?x326) 0.0)))))
(assert
 (let ((?x429 (* 2.0 l_0_1_10)))
 (let ((?x430 (* ?x429 l_0_1_7)))
 (let ((?x361 (* l_0_1_6 l_0_1_6)))
 (let ((?x362 (+ (+ (* l_0_1_4 l_0_1_4) (* l_0_1_5 l_0_1_5)) ?x361)))
 (let ((?x861 (- _a_4_)))
 (let ((?x865 (- (- (* ?x861 ?x362) (* (* (* 2.0 _a_5_) l_0_1_1) l_0_1_4)) ?x430)))
 (= ?x865 0.0))))))))
(assert
 (let ((?x377 (* l_0_1_12 l_0_1_12)))
 (let ((?x374 (* l_0_1_11 l_0_1_11)))
 (let ((?x371 (* l_0_1_10 l_0_1_10)))
 (let ((?x361 (* l_0_1_6 l_0_1_6)))
 (let ((?x362 (+ (+ (* l_0_1_4 l_0_1_4) (* l_0_1_5 l_0_1_5)) ?x361)))
 (let ((?x886 (- _a_5_)))
 (= (- (- (- (* ?x886 ?x362) ?x371) ?x374) ?x377) 0.0))))))))
(assert
 (>= l_0_1_1 0.0))
(assert
 (>= l_0_1_3 0.0))
(assert
 (>= l_0_1_6 0.0))
(assert
 (>= l_0_1_7 0.0))
(assert
 (>= l_0_1_9 0.0))
(assert
 (>= l_0_1_12 0.0))
(assert
 (>= l_0_1_13 0.0))
(assert
 (>= l_0_1_15 0.0))
(assert
 (>= l_0_1_18 0.0))
(assert
 (let ((?x944 (* (* 2.0 l_0_2_11) l_0_2_9)))
 (let ((?x940 (* 2.0 l_0_2_10)))
 (let ((?x941 (* ?x940 l_0_2_8)))
 (let ((?x938 (* (/ 81.0 5000.0) _a_5_)))
 (let ((?x930 (* (/ 81.0 5000.0) _a_2_)))
 (let ((?x926 (+ (* (* 2.0 l_0_2_2) l_0_2_4) (* (* 2.0 l_0_2_3) l_0_2_5))))
 (let ((?x928 (- (+ (* (* (- _a_0_) l_0_2_1) l_0_2_1) (* (/ 809919.0 1000000.0) _a_0_)) (* _a_1_ ?x926))))
 (let ((?x937 (- (- (- ?x928 ?x930) (* (* (* 2.0 _a_3_) l_0_2_1) l_0_2_4)) (* (* (* 2.0 _a_4_) l_0_2_1) l_0_2_2))))
 (let ((?x948 (- (- (- (+ ?x937 ?x938) ?x941) ?x944) (* (* 2.0 l_0_2_14) l_0_2_16))))
 (= (- ?x948 (* (* 2.0 l_0_2_15) l_0_2_17)) 0.0)))))))))))
(assert
 (let ((?x1042 (* l_0_2_7 l_0_2_7)))
 (let ((?x1040 (* l_0_2_15 l_0_2_15)))
 (let ((?x1038 (* l_0_2_14 l_0_2_14)))
 (let ((?x1036 (* (/ 81.0 1000000.0) _a_5_)))
 (let ((?x1031 (* (/ 81.0 100.0) _a_2_)))
 (let ((?x1021 (* (/ 81.0 10000.0) _a_0_)))
 (let ((?x1026 (- ?x1021 (* _a_1_ (+ (* l_0_2_2 l_0_2_2) (* l_0_2_3 l_0_2_3))))))
 (let ((?x1034 (- (+ (- ?x1026 (* (* _a_2_ l_0_2_1) l_0_2_1)) ?x1031) (* (* (* 2.0 _a_3_) l_0_2_1) l_0_2_2))))
 (let ((?x1046 (- (+ (- (- (+ ?x1034 ?x1036) ?x1038) ?x1040) ?x1042) (* (* 1.0 l_0_2_8) l_0_2_8))))
 (= (- ?x1046 (* (* 1.0 l_0_2_9) l_0_2_9)) 0.0)))))))))))
(assert
 (let ((?x1042 (* l_0_2_7 l_0_2_7)))
 (let ((?x1124 (* l_0_2_18 l_0_2_18)))
 (let ((?x1122 (* l_0_2_17 l_0_2_17)))
 (let ((?x1120 (* l_0_2_16 l_0_2_16)))
 (let ((?x1109 (* (/ 81.0 100.0) _a_5_)))
 (let ((?x1102 (* (/ 81.0 1000000.0) _a_2_)))
 (let ((?x1098 (* l_0_2_6 l_0_2_6)))
 (let ((?x1099 (+ (+ (* l_0_2_4 l_0_2_4) (* l_0_2_5 l_0_2_5)) ?x1098)))
 (let ((?x1094 (* (- (/ 81.0 10000.0)) _a_0_)))
 (let ((?x1105 (- (+ (- ?x1094 (* _a_1_ ?x1099)) ?x1102) (* (* (* 2.0 _a_4_) l_0_2_1) l_0_2_4))))
 (let ((?x1113 (- (+ (- ?x1105 (* (* _a_5_ l_0_2_1) l_0_2_1)) ?x1109) (* (* 1.0 l_0_2_10) l_0_2_10))))
 (let ((?x1119 (- (- ?x1113 (* (* 1.0 l_0_2_11) l_0_2_11)) (* (* 1.0 l_0_2_12) l_0_2_12))))
 (= (+ (- (- (- ?x1119 ?x1120) ?x1122) ?x1124) ?x1042) 0.0))))))))))))))
(assert
 (let ((?x1188 (* l_0_2_13 l_0_2_13)))
 (let ((?x1192 (- (- (+ (* (* (- _a_1_) l_0_2_1) l_0_2_1) _a_1_) ?x1188) (* (* 1.0 l_0_2_7) l_0_2_7))))
 (= ?x1192 0.0))))
(assert
 (let ((?x1217 (* (* 2.0 l_0_2_7) l_0_2_8)))
 (let ((?x1211 (* (/ 9.0 1000.0) _a_4_)))
 (let ((?x1208 (* (/ 9.0 10.0) _a_3_)))
 (let ((?x1206 (- (* (* (* (- 2.0) _a_1_) l_0_2_1) l_0_2_2) (* (* _a_3_ l_0_2_1) l_0_2_1))))
 (let ((?x1218 (- (- (+ (+ ?x1206 ?x1208) ?x1211) (* (* 2.0 l_0_2_13) l_0_2_14)) ?x1217)))
 (= ?x1218 0.0)))))))
(assert
 (let ((?x940 (* 2.0 l_0_2_10)))
 (let ((?x1247 (* ?x940 l_0_2_7)))
 (let ((?x1245 (* (/ 9.0 10.0) _a_4_)))
 (let ((?x1244 (- (- (* (* (* (- 2.0) _a_1_) l_0_2_1) l_0_2_4) (* (/ 9.0 1000.0) _a_3_)) (* (* _a_4_ l_0_2_1) l_0_2_1))))
 (= (- (- (+ ?x1244 ?x1245) ?x1247) (* (* 2.0 l_0_2_13) l_0_2_16)) 0.0))))))
(assert
 (let ((?x940 (* 2.0 l_0_2_10)))
 (let ((?x1247 (* ?x940 l_0_2_7)))
 (let ((?x926 (+ (* (* 2.0 l_0_2_2) l_0_2_4) (* (* 2.0 l_0_2_3) l_0_2_5))))
 (let ((?x1287 (- (* (* (* (- 2.0) _a_0_) l_0_2_1) l_0_2_2) (* (* (* 2.0 _a_2_) l_0_2_1) l_0_2_4))))
 (let ((?x1291 (- (- ?x1287 (* _a_3_ ?x926)) (* _a_4_ (+ (* l_0_2_2 l_0_2_2) (* l_0_2_3 l_0_2_3))))))
 (= (+ ?x1291 ?x1247) 0.0)))))))
(assert
 (let ((?x1217 (* (* 2.0 l_0_2_7) l_0_2_8)))
 (let ((?x926 (+ (* (* 2.0 l_0_2_2) l_0_2_4) (* (* 2.0 l_0_2_3) l_0_2_5))))
 (let ((?x1098 (* l_0_2_6 l_0_2_6)))
 (let ((?x1099 (+ (+ (* l_0_2_4 l_0_2_4) (* l_0_2_5 l_0_2_5)) ?x1098)))
 (let ((?x1338 (- (- (* (* (* (- 2.0) _a_0_) l_0_2_1) l_0_2_4) (* _a_3_ ?x1099)) (* _a_4_ ?x926))))
 (= (+ (- ?x1338 (* (* (* 2.0 _a_5_) l_0_2_1) l_0_2_2)) ?x1217) 0.0)))))))
(assert
 (let ((?x944 (* (* 2.0 l_0_2_11) l_0_2_9)))
 (let ((?x940 (* 2.0 l_0_2_10)))
 (let ((?x941 (* ?x940 l_0_2_8)))
 (let ((?x926 (+ (* (* 2.0 l_0_2_2) l_0_2_4) (* (* 2.0 l_0_2_3) l_0_2_5))))
 (let ((?x1391 (- (* (- _a_0_) (+ (* l_0_2_2 l_0_2_2) (* l_0_2_3 l_0_2_3))) (* _a_2_ ?x926))))
 (= (+ (+ ?x1391 ?x941) ?x944) 0.0)))))))
(assert
 (let ((?x1088 (* l_0_2_9 l_0_2_9)))
 (let ((?x1084 (* l_0_2_8 l_0_2_8)))
 (let ((?x1165 (* l_0_2_12 l_0_2_12)))
 (let ((?x1161 (* l_0_2_11 l_0_2_11)))
 (let ((?x1157 (* l_0_2_10 l_0_2_10)))
 (let ((?x1098 (* l_0_2_6 l_0_2_6)))
 (let ((?x1099 (+ (+ (* l_0_2_4 l_0_2_4) (* l_0_2_5 l_0_2_5)) ?x1098)))
 (let ((?x926 (+ (* (* 2.0 l_0_2_2) l_0_2_4) (* (* 2.0 l_0_2_3) l_0_2_5))))
 (let ((?x461 (- _a_0_)))
 (let ((?x1423 (- (- (* ?x461 ?x926) (* _a_2_ ?x1099)) (* _a_5_ (+ (* l_0_2_2 l_0_2_2) (* l_0_2_3 l_0_2_3))))))
 (= (+ (+ (+ (+ (+ ?x1423 ?x1157) ?x1161) ?x1165) ?x1084) ?x1088) 0.0))))))))))))
(assert
 (let ((?x944 (* (* 2.0 l_0_2_11) l_0_2_9)))
 (let ((?x940 (* 2.0 l_0_2_10)))
 (let ((?x941 (* ?x940 l_0_2_8)))
 (let ((?x926 (+ (* (* 2.0 l_0_2_2) l_0_2_4) (* (* 2.0 l_0_2_3) l_0_2_5))))
 (let ((?x1098 (* l_0_2_6 l_0_2_6)))
 (let ((?x1099 (+ (+ (* l_0_2_4 l_0_2_4) (* l_0_2_5 l_0_2_5)) ?x1098)))
 (let ((?x461 (- _a_0_)))
 (= (+ (+ (- (* ?x461 ?x1099) (* _a_5_ ?x926)) ?x941) ?x944) 0.0)))))))))
(assert
 (let ((?x1217 (* (* 2.0 l_0_2_7) l_0_2_8)))
 (let ((?x1499 (- (* (* (* (- 2.0) _a_2_) l_0_2_1) l_0_2_2) (* _a_3_ (+ (* l_0_2_2 l_0_2_2) (* l_0_2_3 l_0_2_3))))))
 (= (+ ?x1499 ?x1217) 0.0))))
(assert
 (let ((?x1088 (* l_0_2_9 l_0_2_9)))
 (let ((?x1084 (* l_0_2_8 l_0_2_8)))
 (let ((?x1519 (+ (* (- _a_2_) (+ (* l_0_2_2 l_0_2_2) (* l_0_2_3 l_0_2_3))) ?x1084)))
 (= (+ ?x1519 ?x1088) 0.0)))))
(assert
 (let ((?x940 (* 2.0 l_0_2_10)))
 (let ((?x1247 (* ?x940 l_0_2_7)))
 (let ((?x1098 (* l_0_2_6 l_0_2_6)))
 (let ((?x1099 (+ (+ (* l_0_2_4 l_0_2_4) (* l_0_2_5 l_0_2_5)) ?x1098)))
 (let ((?x861 (- _a_4_)))
 (let ((?x1532 (+ (- (* ?x861 ?x1099) (* (* (* 2.0 _a_5_) l_0_2_1) l_0_2_4)) ?x1247)))
 (= ?x1532 0.0))))))))
(assert
 (let ((?x1165 (* l_0_2_12 l_0_2_12)))
 (let ((?x1161 (* l_0_2_11 l_0_2_11)))
 (let ((?x1157 (* l_0_2_10 l_0_2_10)))
 (let ((?x1098 (* l_0_2_6 l_0_2_6)))
 (let ((?x1099 (+ (+ (* l_0_2_4 l_0_2_4) (* l_0_2_5 l_0_2_5)) ?x1098)))
 (let ((?x886 (- _a_5_)))
 (= (+ (+ (+ (* ?x886 ?x1099) ?x1157) ?x1161) ?x1165) 0.0))))))))
(assert
 (>= l_0_2_1 0.0))
(assert
 (>= l_0_2_3 0.0))
(assert
 (>= l_0_2_6 0.0))
(assert
 (>= l_0_2_7 0.0))
(assert
 (>= l_0_2_9 0.0))
(assert
 (>= l_0_2_12 0.0))
(assert
 (>= l_0_2_13 0.0))
(assert
 (>= l_0_2_15 0.0))
(assert
 (>= l_0_2_18 0.0))
(check-sat)
(get-model)